db/data/233820658380726711174172684956199648.z3.out
unsat
-------------------
297.054806153
